(set-info :smt-lib-version 2.6)
(set-logic QF_BV)
(set-info :source |
 Patrice Godefroid, SAGE (systematic dynamic test generation)
 For more information: http://research.microsoft.com/en-us/um/people/pg/public_psfiles/ndss2008.pdf
|)
(set-info :category "industrial")
(set-info :status sat)
(declare-fun T4_530 () (_ BitVec 32))
(declare-fun T1_530 () (_ BitVec 8))
(declare-fun T1_531 () (_ BitVec 8))
(declare-fun T1_532 () (_ BitVec 8))
(declare-fun T1_533 () (_ BitVec 8))
(assert (and true (= T4_530 (bvor (bvshl (bvor (bvshl (bvor (bvshl ((_ zero_extend 24) T1_533) (_ bv8 32)) ((_ zero_extend 24) T1_532)) (_ bv8 32)) ((_ zero_extend 24) T1_531)) (_ bv8 32)) ((_ zero_extend 24) T1_530))) (bvule (_ bv1 32) T4_530)))
(check-sat)
(exit)
